p cnf 98 148
-50 47 0
-50 48 0
50 -47 -48 0
-51 45 0
-51 46 0
51 -45 -46 0
-52 39 0
-52 40 0
52 -39 -40 0
-53 35 0
-53 36 0
53 -35 -36 0
-54 31 0
-54 32 0
54 -31 -32 0
-55 25 0
-55 26 0
55 -25 -26 0
-56 27 0
-56 28 0
56 -27 -28 0
-57 -55 0
-57 -56 0
57 55 56 0
-58 29 0
-58 30 0
58 -29 -30 0
-59 57 0
-59 -58 0
59 -57 58 0
-60 -54 0
-60 59 0
60 54 -59 0
-61 33 0
-61 34 0
61 -33 -34 0
-62 60 0
-62 -61 0
62 -60 61 0
-63 -53 0
-63 62 0
63 53 -62 0
-64 37 0
-64 38 0
64 -37 -38 0
-65 63 0
-65 -64 0
65 -63 64 0
-66 -52 0
-66 65 0
66 52 -65 0
-67 41 0
-67 42 0
67 -41 -42 0
-68 66 0
-68 -67 0
68 -66 67 0
-69 43 0
-69 44 0
69 -43 -44 0
-70 68 0
-70 -69 0
70 -68 69 0
-71 -51 0
-71 70 0
71 51 -70 0
-72 -50 0
-72 71 0
72 50 -71 0
-73 -49 0
-73 -72 0
73 49 72 0
-74 15 0
-74 16 0
74 -15 -16 0
-75 1 0
-75 2 0
75 -1 -2 0
-76 3 0
-76 4 0
76 -3 -4 0
-77 -75 0
-77 -76 0
77 75 76 0
-78 5 0
-78 6 0
78 -5 -6 0
-79 77 0
-79 -78 0
79 -77 78 0
-80 7 0
-80 8 0
80 -7 -8 0
-81 79 0
-81 -80 0
81 -79 80 0
-82 9 0
-82 10 0
82 -9 -10 0
-83 81 0
-83 -82 0
83 -81 82 0
-84 11 0
-84 12 0
84 -11 -12 0
-85 83 0
-85 -84 0
85 -83 84 0
-86 13 0
-86 14 0
86 -13 -14 0
-87 85 0
-87 -86 0
87 -85 86 0
-88 -74 0
-88 87 0
88 74 -87 0
-89 17 0
-89 18 0
89 -17 -18 0
-90 88 0
-90 -89 0
90 -88 89 0
-91 19 0
-91 20 0
91 -19 -20 0
-92 90 0
-92 -91 0
92 -90 91 0
-93 21 0
-93 22 0
93 -21 -22 0
-94 92 0
-94 -93 0
94 -92 93 0
-95 23 0
-95 24 0
95 -23 -24 0
-96 94 0
-96 -95 0
96 -94 95 0
-97 49 0
-97 -96 0
97 -49 96 0
-98 -73 0
-98 -97 0
98 73 97 0
-98 0
